WARNING: for repeatability, setting FPU to use double precision
============================[ Problem Statistics ]=============================
|                                                                             |
|  Number of variables:           100                                         |
|  Number of clauses:             449                                         |
|  Parse time:                   0.00 s                                       |
|  Simplification time:          0.00 s                                       |
|                                                                             |
============================[ Search Statistics ]==============================
| Conflicts |          ORIGINAL         |          LEARNT          | Progress |
|           |    Vars  Clauses Literals |    Limit  Clauses Lit/Cl |          |
===============================================================================
|       100 |     100      447     1340 |      163      100      7 |  0.010 % |
===============================================================================
restarts              : 3
conflicts             : 219            (65667 /sec)
decisions             : 275            (0.00 % random) (82459 /sec)
propagations          : 4861           (1457571 /sec)
conflict literals     : 1382           (17.34 % deleted)
Memory used           : 13.00 MB
CPU time              : 0.003335 s

SATISFIABLE
